# abinit input generated by qctoolkit

# scf section
ngkpt 1 1 1
shiftk 0.0 0.0 0.0
tolwfr 1e-05

# cell section
ecut 50.0
nstep 1000
acell 3*1.889726124993
chkprim 0
rprim 4.9190243 0.0 0.0
      2.45951215 4.26000000563 0.0
      0.0 0.0 12.29756073

# atoms section
natom 8
ntypat 3
typat 1 2 2 2 2 2 2 3
znucl 5 6 7
xred

     0.0833333333333 0.0833333333333 0.0
     0.0833333333333 0.333333333333 0.0
     0.333333333333 0.0833333333333 0.0
     0.166666666667 0.416666666667 0.0
     0.416666666667 0.166666666667 0.0
     0.333333333333 0.333333333333 0.0
     0.416666666667 0.416666666667 0.0
     0.166666666667 0.166666666667 0.0

